min: c;

c = 3.66575900467213 * u5_t4_h2 + 3.66575900467213 * u5_t7_h2 + 3.51571579015051 * u5_t4_h3 + 3.51571579015051 * u5_t7_h3 + 2.67910237226354 * u5_t1_h4 + 2.67910237226354 * u5_t3_h4 + 2.67910237226354 * u5_t4_h4 + 2.67910237226354 * u5_t7_h4 + 4.05129991201991 * u5_t1_h5 + 4.05129991201991 * u5_t3_h5 + 4.05129991201991 * u5_t4_h5 + 4.05129991201991 * u5_t7_h5 + 3.54810070470264 * u5_t1_h6 + 3.54810070470264 * u5_t3_h6 + 3.54810070470264 * u5_t4_h6 + 3.54810070470264 * u5_t6_h6 + 3.54810070470264 * u5_t7_h6 + 4.57571005097082 * u5_t1_h7 + 4.57571005097082 * u5_t3_h7 + 4.57571005097082 * u5_t4_h7 + 4.57571005097082 * u5_t6_h7 + 5.79132212639558 * u5_t1_h8 + 5.79132212639558 * u5_t3_h8 + 5.79132212639558 * u5_t4_h8 + 5.79132212639558 * u5_t6_h8 + 4.76588599812779 * u5_t1_h9 + 4.76588599812779 * u5_t3_h9 + 4.76588599812779 * u5_t4_h9 + 4.76588599812779 * u5_t6_h9 + 5.40049306649208 * u5_t1_h10 + 5.40049306649208 * u5_t3_h10 + 5.40049306649208 * u5_t4_h10 + 5.40049306649208 * u5_t6_h10 + 3.97633607076077 * u5_t1_h11 + 3.97633607076077 * u5_t3_h11 + 3.97633607076077 * u5_t4_h11 + 3.97633607076077 * u5_t6_h11 + 6.64381460208346 * u5_t1_h12 + 6.64381460208346 * u5_t3_h12 + 6.64381460208346 * u5_t4_h12 + 6.64381460208346 * u5_t6_h12 + 4.67508325746046 * u5_t1_h13 + 4.67508325746046 * u5_t3_h13 + 4.67508325746046 * u5_t4_h13 + 4.67508325746046 * u5_t6_h13 + 4.67508325746046 * u5_t8_h13 + 5.04790570941994 * u5_t1_h14 + 5.04790570941994 * u5_t3_h14 + 5.04790570941994 * u5_t4_h14 + 5.04790570941994 * u5_t6_h14 + 5.04790570941994 * u5_t8_h14 + 6.20497011378062 * u5_t1_h15 + 6.20497011378062 * u5_t3_h15 + 6.20497011378062 * u5_t4_h15 + 6.20497011378062 * u5_t6_h15 + 6.20497011378062 * u5_t8_h15 + 6.20497011378062 * u5_t9_h15 + 5.66944012764069 * u5_t1_h16 + 5.66944012764069 * u5_t3_h16 + 5.66944012764069 * u5_t4_h16 + 5.66944012764069 * u5_t5_h16 + 5.66944012764069 * u5_t6_h16 + 5.66944012764069 * u5_t8_h16 + 5.66944012764069 * u5_t9_h16 + 6.75545470549669 * u5_t1_h17 + 6.75545470549669 * u5_t5_h17 + 6.75545470549669 * u5_t6_h17 + 6.75545470549669 * u5_t8_h17 + 6.75545470549669 * u5_t9_h17 + 6.75545470549669 * u5_t10_h17 + 6.55241284560354 * u5_t1_h18 + 6.55241284560354 * u5_t2_h18 + 6.55241284560354 * u5_t5_h18 + 6.55241284560354 * u5_t6_h18 + 6.55241284560354 * u5_t9_h18 + 6.55241284560354 * u5_t10_h18 + 5.82674037410558 * u5_t1_h19 + 5.82674037410558 * u5_t2_h19 + 5.82674037410558 * u5_t5_h19 + 5.82674037410558 * u5_t9_h19 + 5.82674037410558 * u5_t10_h19 + 6.04261734594422 * u5_t1_h20 + 6.04261734594422 * u5_t2_h20 + 6.04261734594422 * u5_t5_h20 + 6.04261734594422 * u5_t9_h20 + 6.04261734594422 * u5_t10_h20 + 5.05966048005336 * u5_t2_h21 + 5.05966048005336 * u5_t5_h21 + 5.05966048005336 * u5_t9_h21 + 5.05966048005336 * u5_t10_h21 + 5.18324742472157 * u5_t2_h22 + 5.18324742472157 * u5_t5_h22 + 5.18324742472157 * u5_t9_h22 + 5.18324742472157 * u5_t10_h22 + 5.20597370976574 * u5_t5_h23 + 5.20597370976574 * u5_t9_h23 + 5.20597370976574 * u5_t10_h23;
0 <= u5_t1_h4 <= 1;
0 <= u5_t1_h5 <= 1;
0 <= u5_t1_h6 <= 1;
0 <= u5_t1_h7 <= 1;
0 <= u5_t1_h8 <= 1;
0 <= u5_t1_h9 <= 1;
0 <= u5_t1_h10 <= 1;
0 <= u5_t1_h11 <= 1;
0 <= u5_t1_h12 <= 1;
0 <= u5_t1_h13 <= 1;
0 <= u5_t1_h14 <= 1;
0 <= u5_t1_h15 <= 1;
0 <= u5_t1_h16 <= 1;
0 <= u5_t1_h17 <= 1;
0 <= u5_t1_h18 <= 1;
0 <= u5_t1_h19 <= 1;
0 <= u5_t1_h20 <= 1;
u5_t1_h4 + u5_t1_h5 + u5_t1_h6 + u5_t1_h7 + u5_t1_h8 + u5_t1_h9 + u5_t1_h10 + u5_t1_h11 + u5_t1_h12 + u5_t1_h13 + u5_t1_h14 + u5_t1_h15 + u5_t1_h16 + u5_t1_h17 + u5_t1_h18 + u5_t1_h19 + u5_t1_h20 = 1;
0 <= u5_t2_h18 <= 1;
0 <= u5_t2_h19 <= 1;
0 <= u5_t2_h20 <= 1;
0 <= u5_t2_h21 <= 1;
0 <= u5_t2_h22 <= 1;
u5_t2_h18 + u5_t2_h19 + u5_t2_h20 + u5_t2_h21 + u5_t2_h22 = 3;
0 <= u5_t3_h4 <= 1;
0 <= u5_t3_h5 <= 1;
0 <= u5_t3_h6 <= 1;
0 <= u5_t3_h7 <= 1;
0 <= u5_t3_h8 <= 1;
0 <= u5_t3_h9 <= 1;
0 <= u5_t3_h10 <= 1;
0 <= u5_t3_h11 <= 1;
0 <= u5_t3_h12 <= 1;
0 <= u5_t3_h13 <= 1;
0 <= u5_t3_h14 <= 1;
0 <= u5_t3_h15 <= 1;
0 <= u5_t3_h16 <= 1;
u5_t3_h4 + u5_t3_h5 + u5_t3_h6 + u5_t3_h7 + u5_t3_h8 + u5_t3_h9 + u5_t3_h10 + u5_t3_h11 + u5_t3_h12 + u5_t3_h13 + u5_t3_h14 + u5_t3_h15 + u5_t3_h16 = 1;
0 <= u5_t4_h2 <= 1;
0 <= u5_t4_h3 <= 1;
0 <= u5_t4_h4 <= 1;
0 <= u5_t4_h5 <= 1;
0 <= u5_t4_h6 <= 1;
0 <= u5_t4_h7 <= 1;
0 <= u5_t4_h8 <= 1;
0 <= u5_t4_h9 <= 1;
0 <= u5_t4_h10 <= 1;
0 <= u5_t4_h11 <= 1;
0 <= u5_t4_h12 <= 1;
0 <= u5_t4_h13 <= 1;
0 <= u5_t4_h14 <= 1;
0 <= u5_t4_h15 <= 1;
0 <= u5_t4_h16 <= 1;
u5_t4_h2 + u5_t4_h3 + u5_t4_h4 + u5_t4_h5 + u5_t4_h6 + u5_t4_h7 + u5_t4_h8 + u5_t4_h9 + u5_t4_h10 + u5_t4_h11 + u5_t4_h12 + u5_t4_h13 + u5_t4_h14 + u5_t4_h15 + u5_t4_h16 = 3;
0 <= u5_t5_h16 <= 1;
0 <= u5_t5_h17 <= 1;
0 <= u5_t5_h18 <= 1;
0 <= u5_t5_h19 <= 1;
0 <= u5_t5_h20 <= 1;
0 <= u5_t5_h21 <= 1;
0 <= u5_t5_h22 <= 1;
0 <= u5_t5_h23 <= 1;
u5_t5_h16 + u5_t5_h17 + u5_t5_h18 + u5_t5_h19 + u5_t5_h20 + u5_t5_h21 + u5_t5_h22 + u5_t5_h23 = 2;
0 <= u5_t6_h6 <= 1;
0 <= u5_t6_h7 <= 1;
0 <= u5_t6_h8 <= 1;
0 <= u5_t6_h9 <= 1;
0 <= u5_t6_h10 <= 1;
0 <= u5_t6_h11 <= 1;
0 <= u5_t6_h12 <= 1;
0 <= u5_t6_h13 <= 1;
0 <= u5_t6_h14 <= 1;
0 <= u5_t6_h15 <= 1;
0 <= u5_t6_h16 <= 1;
0 <= u5_t6_h17 <= 1;
0 <= u5_t6_h18 <= 1;
u5_t6_h6 + u5_t6_h7 + u5_t6_h8 + u5_t6_h9 + u5_t6_h10 + u5_t6_h11 + u5_t6_h12 + u5_t6_h13 + u5_t6_h14 + u5_t6_h15 + u5_t6_h16 + u5_t6_h17 + u5_t6_h18 = 2;
0 <= u5_t7_h2 <= 1;
0 <= u5_t7_h3 <= 1;
0 <= u5_t7_h4 <= 1;
0 <= u5_t7_h5 <= 1;
0 <= u5_t7_h6 <= 1;
u5_t7_h2 + u5_t7_h3 + u5_t7_h4 + u5_t7_h5 + u5_t7_h6 = 1;
0 <= u5_t8_h13 <= 1;
0 <= u5_t8_h14 <= 1;
0 <= u5_t8_h15 <= 1;
0 <= u5_t8_h16 <= 1;
0 <= u5_t8_h17 <= 1;
u5_t8_h13 + u5_t8_h14 + u5_t8_h15 + u5_t8_h16 + u5_t8_h17 = 3;
0 <= u5_t9_h15 <= 1;
0 <= u5_t9_h16 <= 1;
0 <= u5_t9_h17 <= 1;
0 <= u5_t9_h18 <= 1;
0 <= u5_t9_h19 <= 1;
0 <= u5_t9_h20 <= 1;
0 <= u5_t9_h21 <= 1;
0 <= u5_t9_h22 <= 1;
0 <= u5_t9_h23 <= 1;
u5_t9_h15 + u5_t9_h16 + u5_t9_h17 + u5_t9_h18 + u5_t9_h19 + u5_t9_h20 + u5_t9_h21 + u5_t9_h22 + u5_t9_h23 = 1;
0 <= u5_t10_h17 <= 1;
0 <= u5_t10_h18 <= 1;
0 <= u5_t10_h19 <= 1;
0 <= u5_t10_h20 <= 1;
0 <= u5_t10_h21 <= 1;
0 <= u5_t10_h22 <= 1;
0 <= u5_t10_h23 <= 1;
u5_t10_h17 + u5_t10_h18 + u5_t10_h19 + u5_t10_h20 + u5_t10_h21 + u5_t10_h22 + u5_t10_h23 = 1;
